       4       17 
      44       22 
      12       24 
       9       36 
      26       11 
      15       18 
      30       34 
      10       25 
      16       40 
       8       48 
      23        3 
      29        2 
       7       49 
      39       32 
      13       21 
      46        6 
      33       35 
      28       31 
      20        5 
      41       19 
      14       27 
      42       38 
       1       45 
      47       37 
      43        0 
